\ This file has been generated by DOcplex
\ ENCODING=ISO-8859-1
\Problem name: <decpomdp.DecPOMDP object at 0x1055e3b20> problem

Maximize
 obj: 0.500000000000 V_0 + 0.500000000000 V_1
Subject To
 c1: - 7.477175353809 a0_0 - 10 a0_1 - V_0 >= 0
 c2: - 10 a0_0 + 5 a0_1 - V_0 >= 0
 c3: - 9.813041935061 a0_0 - 10 a0_1 - V_1 >= 0
 c4: - 10 a0_0 - 20 a0_1 - V_1 >= 0
 c5: a0_0 + a0_1 = 1

Bounds
       a0_0 <= 1
       a0_1 <= 1
       V_0 Free
       V_1 Free
End
